study/exp-portion-fine-grain-4v100/run-logs-backup-12-06/samgraph_cache_graphsage_kKHop2_papers100M-undir_coll_cache_asymm_link_2_cache_rate_010_batch_size_8000_concurrent_impl_MPS.log
config:eval_tsp="2022-12-06 14:04:32"
config:arch=arch5
config:num_train_worker=3
config:num_sample_worker=1
config:sample_type=khop2
config:root_path=/nvme/graph-learning-copy/samgraph/
config:dataset=papers100M-undir
config:pipeline=False
config:cache_policy=coll_cache_asymm_link
config:cache_percentage=0.1
config:num_epoch=4
config:batch_size=8000
config:num_hidden=256
config:max_sampling_jobs=1
config:max_copying_jobs=1
config:barriered_epoch=1
config:presample_epoch=2
config:omp_thread_num=13
config:unsupervised=False
config:amp=True
config:rolling=0
config:fanout=[25, 10]
config:lr=0.003
config:dropout=0.5
config:single_gpu=False
config:max_num_step=100000
config:validate_configs=False
config:report_acc=0
config:dataset_path=/nvme/graph-learning-copy/samgraph/papers100M-undir
config:torch_thread_num=13
config:train_workers=['cuda:0', 'cuda:1', 'cuda:2']
config:sample_workers=['cuda:3']
config:num_fanout=2
config:num_layer=2
config:_run_mode=RunMode.FGNN
config:_log_level=warn
config:_profile_level=3
config:_empty_feat=0
config:_arch=5
config:_sample_type=5
config:_cache_policy=13
test_result:init:input_scale_factor=1.1
0 :  {link #0 : 1}, {link #1 : 2},
1 :  {link #0 : 2}, {link #1 : 0},
2 :  {link #0 : 0}, {link #1 : 1},
0 :  {link #0 : 1}, {link #1 : 2},
1 :  {link #0 : 2}, {link #1 : 0},
2 :  {link #0 : 0}, {link #1 : 1},
0 :  {link #0 : 1}, {link #1 : 2},
1 :  {link #0 : 2}, {link #1 : 0},
2 :  {link #0 : 0}, {link #1 : 1},
Set parameter WLSAccessID
Set parameter WLSSecret
Set parameter LicenseID
Set parameter TimeLimit to value 200
Set parameter MIPGap to value 0.05
Set parameter GomoryPasses to value 0
Set parameter Aggregate to value 0
Set parameter LogFile to value "cppsolver.log"
Set parameter Threads to value 26
Academic license - for non-commercial use only - registered to xiaoniu.sxn@sjtu.edu.cn
Gurobi Optimizer version 9.5.1 build v9.5.1rc2 (linux64)
Thread count: 40 physical cores, 80 logical processors, using up to 26 threads
Academic license - for non-commercial use only - registered to xiaoniu.sxn@sjtu.edu.cn
Optimize a model with 21372 rows, 10174 columns and 64086 nonzeros
Model fingerprint: 0xdb885f63
Variable types: 4 continuous, 10170 integer (10170 binary)
Coefficient statistics:
  Matrix range     [1e-04, 4e+02]
  Objective range  [1e+00, 1e+00]
  Bounds range     [1e+00, 1e+00]
  RHS range        [1e+00, 2e+02]
Found heuristic solution: objective 2.000000e+09
Presolve removed 12206 rows and 0 columns
Presolve time: 0.09s
Presolved: 9166 rows, 10174 columns, 37642 nonzeros
Found heuristic solution: objective 6232.5216234
Variable types: 4 continuous, 10170 integer (10170 binary)

Root relaxation: objective 3.420429e+02, 7833 iterations, 0.27 seconds (0.25 work units)

    Nodes    |    Current Node    |     Objective Bounds      |     Work
 Expl Unexpl |  Obj  Depth IntInf | Incumbent    BestBd   Gap | It/Node Time

     0     0  342.04291    0   29 6232.52162  342.04291  94.5%     -    0s
H    0     0                     438.0495210  342.04291  21.9%     -    0s
H    0     0                     342.5002510  342.04291  0.13%     -    1s

Explored 1 nodes (10077 simplex iterations) in 1.54 seconds (1.02 work units)
Thread count was 26 (of 80 available processors)

Solution count 4: 342.5 438.05 6232.52 2e+09 

Optimal solution found (tolerance 5.00e-02)
Best objective 3.425002509978e+02, best bound 3.420429148217e+02, gap 0.1335%
coll_cache:optimal_local_rate=0.935274,0.935073,0.935175,
coll_cache:optimal_remote_rate=0.0467538,0.0469546,0.0468524,
coll_cache:optimal_cpu_rate=0.0179726,0.0179726,0.0179726,
z=342.5
test_result:init:feat_nbytes=56862697472
test_result:init:cache_nbytes=5679329280
test_result:init:feat_nbytes=56862697472
test_result:init:cache_nbytes=5688867840
test_result:init:feat_nbytes=56862697472
test_result:init:cache_nbytes=5680694272
0 :  {link #0 : 1}, {link #1 : 2},
1 :  {link #0 : 2}, {link #1 : 0},
2 :  {link #0 : 0}, {link #1 : 1},
0 :  {link #0 : 1}, {link #1 : 2},
1 :  {link #0 : 2}, {link #1 : 0},
2 :  {link #0 : 0}, {link #1 : 1},
0 :  {link #0 : 1}, {link #1 : 2},
1 :  {link #0 : 2}, {link #1 : 0},
2 :  {link #0 : 0}, {link #1 : 1},
Set parameter WLSAccessID
Set parameter WLSSecret
Set parameter LicenseID
Set parameter TimeLimit to value 200
Set parameter MIPGap to value 0.05
Set parameter GomoryPasses to value 0
Set parameter Aggregate to value 0
Set parameter LogFile to value "cppsolver.log"
Set parameter Threads to value 26
Academic license - for non-commercial use only - registered to xiaoniu.sxn@sjtu.edu.cn
Gurobi Optimizer version 9.5.1 build v9.5.1rc2 (linux64)
Thread count: 40 physical cores, 80 logical processors, using up to 26 threads
Academic license - for non-commercial use only - registered to xiaoniu.sxn@sjtu.edu.cn
Optimize a model with 21372 rows, 10174 columns and 64086 nonzeros
Model fingerprint: 0x04c0db31
Variable types: 4 continuous, 10170 integer (10170 binary)
Coefficient statistics:
  Matrix range     [1e-04, 4e+02]
  Objective range  [1e+00, 1e+00]
  Bounds range     [1e+00, 1e+00]
  RHS range        [1e+00, 2e+02]
Found heuristic solution: objective 2.000000e+09
Presolve removed 12206 rows and 0 columns
Presolve time: 0.09s
Presolved: 9166 rows, 10174 columns, 37642 nonzeros
Found heuristic solution: objective 7593.4611836
Variable types: 4 continuous, 10170 integer (10170 binary)

Root relaxation: objective 3.420429e+02, 7695 iterations, 0.19 seconds (0.16 work units)

    Nodes    |    Current Node    |     Objective Bounds      |     Work
 Expl Unexpl |  Obj  Depth IntInf | Incumbent    BestBd   Gap | It/Node Time

     0     0  342.04291    0   26 7593.46118  342.04291  95.5%     -    0s
H    0     0                     411.9697534  342.04291  17.0%     -    0s
H    0     0                     342.7278247  342.04291  0.20%     -    1s

Explored 1 nodes (10203 simplex iterations) in 1.18 seconds (0.81 work units)
Thread count was 26 (of 80 available processors)

Solution count 4: 342.728 411.97 7593.46 2e+09 

Optimal solution found (tolerance 5.00e-02)
Best objective 3.427278247038e+02, best bound 3.420429148217e+02, gap 0.1998%
coll_cache:optimal_local_rate=0.935086,0.935043,0.93511,
coll_cache:optimal_remote_rate=0.0469416,0.0469846,0.046917,
coll_cache:optimal_cpu_rate=0.0179726,0.0179726,0.0179726,
z=342.728
test_result:init:cache_nbytes=0
test_result:init:cache_nbytes=0
test_result:init:cache_nbytes=0
[Train  Worker 2/3] Started with PID 989520(Tesla V100-SXM2-16GB)
[Train  Worker 2] run train for 4 epochs with 153 steps
[Train  Worker 2] Avg Epoch Time 0.6738 | Train Total Time(Profiler) 0.4241 | Copy Time 0.2451
[Train  Worker 1/3] Started with PID 989518(Tesla V100-SXM2-16GB)
[Train  Worker 1] run train for 4 epochs with 153 steps
[Train  Worker 1] Avg Epoch Time 0.6737 | Train Total Time(Profiler) 0.4242 | Copy Time 0.2450
[Train  Worker 0/3] Started with PID 989516(Tesla V100-SXM2-16GB)
[Train  Worker 0] run train for 4 epochs with 153 steps
Epoch 00000 | Epoch Time 1.8266 | Total Train Time(Profiler) 1.5465 | Copy Time 0.2744
Epoch 00001 | Epoch Time 0.6835 | Total Train Time(Profiler) 0.4343 | Copy Time 0.2441
Epoch 00002 | Epoch Time 0.6700 | Total Train Time(Profiler) 0.4201 | Copy Time 0.2450
Epoch 00003 | Epoch Time 0.6676 | Total Train Time(Profiler) 0.4152 | Copy Time 0.2476
[Train  Worker 0] Avg Epoch Time 0.6737 | Train Total Time(Profiler) 0.4232 | Copy Time 0.2456
    [Step(average) Profiler Level 1 E3 S152]
        L1  sample           0.005621 | send           0.001404
        L1  recv             0.000000 | copy           0.000000 | convert time 0.000000 | train  0.000000
        L1  feature nbytes 0.00 Bytes | label nbytes 0.00 Bytes
        L1  id nbytes      0.00 Bytes | graph nbytes 0.00 Bytes
        L1  miss nbytes    0.00 Bytes | remote nbytes 0.00 Bytes
        L1  num nodes         1100992 | num samples     1712982
    [Step(average) Profiler Level 2 E3 S152]
        L2  shuffle     0.000270 | core sample  0.002070 | id remap        0.003180
        L2  graph copy  0.000000 | id copy      0.000000 | cache feat copy 0.000000
        L2  last layer sample time 0.000324 | size 72447.307190
    [Step(average) Profiler Level 3 E3 S152]
        L3  khop sample coo  0.001744 | khop sort coo      0.000000 | khop count edge     0.000039 | khop compact edge 0.000248
        L3  walk sample coo  0.000000 | walk topk total    0.000000 | walk topk step1     0.000000 | walk topk step2   0.000000
        L3  walk topk step3  0.000000 | walk topk step4    0.000000 | walk topk step5     0.000000
        L3  walk topk step6  0.000000 | walk topk step7    0.000000
        L3  remap unique     0.000000 | remap populate     0.002646 | remap mapnode       0.000000 | remap mapedge     0.000533
        L3  cache get_index  0.000000 | cache copy_index   0.000000 | cache extract_miss  0.000000
        L3  cache copy_miss  0.000000 | cache combine_miss 0.000000 | cache combine cache 0.000000 | cache combine remote 0.000000
        L3  label extract  0.000000
    [Init Profiler Level 1]
        L1  init     5.0826 | sampler init    20.0849 | trainer init 0.0000
    [Init Profiler Level 2]
        L2  load ds         7.9652 | init queue          11.5830
        L2  presample       3.8487 | build interal ds     1.7680
        L2  build cache     0.0000
    [Init Profiler Level 3]
        L3  load dataset: mmap     5.0787 | copy         2.8865
        L3  dist queue: alloc      0.0017 | pin         11.5813 | push     0.0000
        L3  presample: init        0.2968
        L3  presample: sample      1.7016 | copy         0.1067
        L3  presample: count       1.1120 | sort         0.2708
        L3  presample: reset       0.0007 | get rank     0.0334
        L3  internal: cuda ctx     1.5252 | cuda stream     0.2383
[Sample Worker 0/1] Started with PID 989515(Tesla V100-SXM2-16GB)
[Sample Worker 0] run sample for 4 epochs with 153 steps
[Sample Worker 0] Avg Sample Total Time 1.0764 | Sampler Total Time(Profiler) 1.0748
test_result:sample_time=0.8600
test_result:get_cache_miss_index_time=0.0000
test_result:enqueue_samples_time=0.2148
test_result:epoch_time:sample_total=1.0764
[CUDA] cuda0: usage: 11.31 GB
[SAM] cuda0 data alloc        : 0.00 Bytes
[SAM] cuda0 workspace         : 1.23 GB
[SAM] cuda0 workspace reserve : 621.23 MB
[SAM] cuda0 total             : 1.23 GB
    [Step(average) Profiler Level 1 E3 S152]
        L1  sample           0.000000 | send           0.000000
        L1  recv             0.001565 | copy           0.004809 | convert time 0.000397 | train  0.007914
        L1  feature nbytes  537.59 MB | label nbytes   62.50 KB
        L1  id nbytes      0.00 Bytes | graph nbytes 0.00 Bytes
        L1  miss nbytes      16.68 MB | remote nbytes   23.29 MB
        L1  num nodes               0 | num samples           0
    [Step(average) Profiler Level 2 E3 S152]
        L2  shuffle     0.000000 | core sample  0.000000 | id remap        0.000000
        L2  graph copy  0.000003 | id copy      0.000000 | cache feat copy 0.003241
        L2  last layer sample time 0.000000 | size 0.000000
    [Step(average) Profiler Level 3 E3 S152]
        L3  khop sample coo  0.000000 | khop sort coo      0.000000 | khop count edge     0.000000 | khop compact edge 0.000000
        L3  walk sample coo  0.000000 | walk topk total    0.000000 | walk topk step1     0.000000 | walk topk step2   0.000000
        L3  walk topk step3  0.000000 | walk topk step4    0.000000 | walk topk step5     0.000000
        L3  walk topk step6  0.000000 | walk topk step7    0.000000
        L3  remap unique     0.000000 | remap populate     0.000000 | remap mapnode       0.000000 | remap mapedge     0.000000
        L3  cache get_index  0.000705 | cache copy_index   0.000000 | cache extract_miss  0.000000
        L3  cache copy_miss  0.000000 | cache combine_miss 0.002347 | cache combine cache 0.001646 | cache combine remote 0.000332
        L3  label extract  0.000174
    [Init Profiler Level 1]
        L1  init     5.0826 | sampler init     0.0000 | trainer init 75.1734
    [Init Profiler Level 2]
        L2  load ds         5.0787 | init queue          11.5951
        L2  presample       0.0000 | build interal ds     1.5132
        L2  build cache    62.0628
    [Init Profiler Level 3]
        L3  load dataset: mmap     5.0787 | copy         0.0000
        L3  dist queue: alloc      0.0017 | pin         11.5934 | push     0.0000
        L3  presample: init        0.0000
        L3  presample: sample      0.0000 | copy         0.0000
        L3  presample: count       0.0000 | sort         0.0000
        L3  presample: reset       0.0000 | get rank     0.0000
        L3  internal: cuda ctx     1.5131 | cuda stream     0.0001
|===========================================================================|
|                  PyTorch CUDA memory summary, device ID 0                 |
|---------------------------------------------------------------------------|
|            CUDA OOMs: 0            |        cudaMalloc retries: 0         |
|===========================================================================|
|        Metric         | Cur Usage  | Peak Usage | Tot Alloc  | Tot Freed  |
|---------------------------------------------------------------------------|
| Allocated memory      |   22873 KB |  402650 KB |  284883 MB |  284861 MB |
|       from large pool |   18200 KB |  399267 KB |  282770 MB |  282753 MB |
|       from small pool |    4673 KB |    7122 KB |    2112 MB |    2108 MB |
|---------------------------------------------------------------------------|
| Active memory         |   22873 KB |  402650 KB |  284883 MB |  284861 MB |
|       from large pool |   18200 KB |  399267 KB |  282770 MB |  282753 MB |
|       from small pool |    4673 KB |    7122 KB |    2112 MB |    2108 MB |
|---------------------------------------------------------------------------|
| GPU reserved memory   |  579584 KB |  579584 KB |  579584 KB |       0 B  |
|       from large pool |  571392 KB |  571392 KB |  571392 KB |       0 B  |
|       from small pool |    8192 KB |    8192 KB |    8192 KB |       0 B  |
|---------------------------------------------------------------------------|
| Non-releasable memory |   24230 KB |  370800 KB |  332590 MB |  332566 MB |
|       from large pool |   22760 KB |  368982 KB |  330171 MB |  330149 MB |
|       from small pool |    1470 KB |    3613 KB |    2418 MB |    2416 MB |
|---------------------------------------------------------------------------|
| Allocations           |      38    |      51    |   22680    |   22642    |
|       from large pool |       3    |      14    |    8976    |    8973    |
|       from small pool |      35    |      39    |   13704    |   13669    |
|---------------------------------------------------------------------------|
| Active allocs         |      39    |      51    |   22680    |   22641    |
|       from large pool |       3    |      14    |    8976    |    8973    |
|       from small pool |      36    |      39    |   13704    |   13668    |
|---------------------------------------------------------------------------|
| GPU reserved segments |      13    |      13    |      13    |       0    |
|       from large pool |       9    |       9    |       9    |       0    |
|       from small pool |       4    |       4    |       4    |       0    |
|---------------------------------------------------------------------------|
| Non-releasable allocs |      13    |      24    |   10500    |   10487    |
|       from large pool |       4    |      12    |    5188    |    5184    |
|       from small pool |       9    |      16    |    5312    |    5303    |
|---------------------------------------------------------------------------|
| Oversize allocations  |       0    |       0    |       0    |       0    |
|---------------------------------------------------------------------------|
| Oversize GPU segments |       0    |       0    |       0    |       0    |
|===========================================================================|

test_result:epoch_time:copy_time=0.2456
test_result:convert_time=0.0209
test_result:train_time=0.4023
test_result:epoch_time:train_total=0.4232
test_result:cache_percentage=0.1000
test_result:cache_hit_rate=1.0000
test_result:run_time=8.1589
